====================================================================================================================
File name: 200_10_85_15.def
Creation date: Mon Nov 24 20:40:30 CET 2014
Website: http://imopse.ii.pwr.edu.pl/
Reference:
Myszkowski P. B., Skowronski M. E., Olech L., Oslizlo K.,
Hybrid Ant Colony Optimization in solving Multi-Skill Resource-Constrained Project Scheduling Problem,
Soft Computing, DOI: DOI 10.1007/s00500-014-1455-x
====================================================================================================================
General characteristics:
Tasks: 200
Resources: 10
Precedence relations: 85
Number of skill types: 15
====================================================================================================================
ResourceID 	 Salary 	 Skills
1	 	 	51.6	 	 Q0: 0 	  Q1: 1 	  Q4: 2 	  Q6: 2 	  Q2: 2 	  Q3: 2
2	 	 	93.8	 	 Q3: 0 	  Q11: 0 	  Q10: 1 	  Q2: 0 	  Q0: 1 	  Q13: 1
3	 	 	58.0	 	 Q14: 2 	  Q3: 2 	  Q11: 1 	  Q12: 2 	  Q1: 0 	  Q13: 0
4	 	 	87.7	 	 Q5: 2 	  Q0: 1 	  Q2: 2 	  Q10: 1 	  Q11: 2 	  Q4: 2
5	 	 	87.4	 	 Q12: 1 	  Q3: 2 	  Q1: 2 	  Q4: 0 	  Q9: 2 	  Q11: 0
6	 	 	10.8	 	 Q5: 1 	  Q8: 1 	  Q6: 1 	  Q11: 0 	  Q1: 0 	  Q7: 1
7	 	 	20.5	 	 Q14: 1 	  Q10: 1 	  Q5: 2 	  Q6: 1 	  Q13: 1 	  Q1: 0
8	 	 	65.7	 	 Q9: 2 	  Q12: 2 	  Q14: 2 	  Q0: 1 	  Q11: 2 	  Q6: 2
9	 	 	90.3	 	 Q2: 1 	  Q5: 2 	  Q12: 1 	  Q4: 2 	  Q7: 0 	  Q1: 0
10	 	 	91.4	 	 Q7: 2 	  Q2: 0 	  Q10: 0 	  Q13: 0 	  Q14: 2 	  Q11: 2
====================================================================================================================
TaskID 	 Duration 	 Skill 	 Predecessor IDs
1	 	 	25	 Q13: 0
2	 	 	9	 Q14: 1
3	 	 	25	 Q10: 1
4	 	 	14	 Q11: 2
5	 	 	23	 Q7: 2
6	 	 	34	 Q8: 1
7	 	 	35	 Q6: 1
8	 	 	20	 Q11: 0
9	 	 	20	 Q1: 2
10	 	 	30	 Q11: 2
11	 	 	28	 Q1: 1
12	 	 	37	 Q11: 2
13	 	 	19	 Q7: 0
14	 	 	32	 Q1: 2
15	 	 	39	 Q4: 2
16	 	 	24	 Q14: 2
17	 	 	15	 Q3: 2
18	 	 	20	 Q11: 0
19	 	 	21	 Q0: 1
20	 	 	9	 Q12: 2
21	 	 	32	 Q2: 1
22	 	 	33	 Q7: 2
23	 	 	25	 Q4: 0
24	 	 	11	 Q2: 1
25	 	 	11	 Q12: 2
26	 	 	15	 Q6: 1
27	 	 	28	 Q7: 0
28	 	 	32	 Q7: 0
29	 	 	34	 Q0: 0
30	 	 	24	 Q8: 1	 	20
31	 	 	11	 Q2: 1
32	 	 	22	 Q4: 0
33	 	 	32	 Q3: 0
34	 	 	17	 Q11: 0
35	 	 	11	 Q5: 2
36	 	 	14	 Q6: 1
37	 	 	22	 Q4: 0
38	 	 	14	 Q0: 0	 	14
39	 	 	36	 Q4: 2	 	31
40	 	 	29	 Q14: 1
41	 	 	14	 Q11: 2	 	1
42	 	 	14	 Q13: 0	 	33
43	 	 	13	 Q11: 2
44	 	 	10	 Q6: 2
45	 	 	17	 Q4: 0
46	 	 	29	 Q11: 0
47	 	 	15	 Q4: 0
48	 	 	34	 Q3: 0
49	 	 	40	 Q3: 2
50	 	 	36	 Q11: 0
51	 	 	22	 Q1: 1	 	2
52	 	 	9	 Q12: 1
53	 	 	25	 Q5: 2
54	 	 	19	 Q11: 0	 	32
55	 	 	22	 Q2: 0
56	 	 	11	 Q13: 1
57	 	 	20	 Q1: 2
58	 	 	27	 Q10: 0
59	 	 	12	 Q2: 1
60	 	 	11	 Q12: 2	 	14
61	 	 	16	 Q2: 2
62	 	 	11	 Q9: 2
63	 	 	14	 Q2: 1
64	 	 	17	 Q1: 0
65	 	 	16	 Q11: 2	 	63
66	 	 	36	 Q7: 1
67	 	 	26	 Q0: 0
68	 	 	22	 Q14: 1
69	 	 	14	 Q7: 0	 	4	52
70	 	 	32	 Q4: 2	 	33
71	 	 	37	 Q13: 0
72	 	 	13	 Q1: 0	 	52
73	 	 	40	 Q10: 0	 	42
74	 	 	23	 Q3: 0
75	 	 	17	 Q1: 1	 	21
76	 	 	24	 Q4: 0
77	 	 	17	 Q4: 0
78	 	 	31	 Q4: 0
79	 	 	20	 Q13: 1	 	74	58
80	 	 	26	 Q11: 2
81	 	 	9	 Q10: 0
82	 	 	11	 Q0: 0
83	 	 	9	 Q4: 0
84	 	 	33	 Q1: 2	 	23
85	 	 	19	 Q4: 2	 	64
86	 	 	34	 Q11: 1	 	71
87	 	 	31	 Q6: 2	 	52
88	 	 	13	 Q7: 1
89	 	 	20	 Q7: 2
90	 	 	27	 Q12: 2
91	 	 	37	 Q2: 2
92	 	 	22	 Q1: 1
93	 	 	29	 Q1: 1	 	56
94	 	 	39	 Q7: 0	 	93
95	 	 	20	 Q11: 1	 	17
96	 	 	19	 Q10: 1
97	 	 	35	 Q1: 1	 	6
98	 	 	11	 Q10: 0
99	 	 	31	 Q13: 1
100	 	 	39	 Q3: 2
101	 	 	16	 Q3: 2
102	 	 	15	 Q5: 1
103	 	 	27	 Q5: 1	 	60
104	 	 	34	 Q13: 1	 	101
105	 	 	19	 Q1: 1	 	23
106	 	 	36	 Q8: 1
107	 	 	33	 Q11: 0
108	 	 	34	 Q2: 0
109	 	 	21	 Q7: 2	 	31	34
110	 	 	19	 Q2: 2	 	15	96
111	 	 	9	 Q5: 1
112	 	 	18	 Q2: 1
113	 	 	34	 Q14: 1	 	44
114	 	 	18	 Q2: 1	 	8
115	 	 	8	 Q11: 2	 	13
116	 	 	33	 Q13: 0
117	 	 	27	 Q7: 0
118	 	 	11	 Q1: 0
119	 	 	36	 Q11: 2
120	 	 	17	 Q2: 2
121	 	 	17	 Q7: 1	 	16
122	 	 	12	 Q13: 0	 	66
123	 	 	13	 Q8: 1
124	 	 	22	 Q1: 2
125	 	 	33	 Q6: 2
126	 	 	33	 Q1: 1
127	 	 	12	 Q0: 0
128	 	 	35	 Q0: 1
129	 	 	16	 Q10: 1	 	104
130	 	 	21	 Q0: 1
131	 	 	19	 Q11: 2
132	 	 	32	 Q14: 1
133	 	 	30	 Q0: 0
134	 	 	31	 Q12: 2
135	 	 	23	 Q11: 2	 	103
136	 	 	24	 Q0: 1	 	119
137	 	 	38	 Q2: 2	 	54
138	 	 	29	 Q9: 2
139	 	 	13	 Q13: 1	 	19
140	 	 	16	 Q9: 2
141	 	 	28	 Q3: 0	 	4
142	 	 	33	 Q0: 0
143	 	 	17	 Q10: 1
144	 	 	32	 Q13: 0	 	134
145	 	 	17	 Q5: 1
146	 	 	32	 Q11: 1
147	 	 	14	 Q2: 0
148	 	 	31	 Q5: 1	 	51
149	 	 	19	 Q9: 2
150	 	 	39	 Q4: 0	 	40	6
151	 	 	30	 Q13: 0	 	24
152	 	 	14	 Q2: 2	 	51
153	 	 	33	 Q6: 1
154	 	 	9	 Q7: 1	 	63
155	 	 	36	 Q0: 0
156	 	 	22	 Q13: 1	 	97
157	 	 	11	 Q5: 1	 	154
158	 	 	37	 Q6: 1	 	59
159	 	 	37	 Q0: 0
160	 	 	31	 Q6: 2
161	 	 	22	 Q7: 2	 	125
162	 	 	24	 Q10: 0
163	 	 	24	 Q12: 2	 	81	155
164	 	 	10	 Q8: 1	 	116
165	 	 	29	 Q11: 0	 	10
166	 	 	26	 Q7: 2	 	21
167	 	 	33	 Q3: 2	 	12	84
168	 	 	23	 Q7: 2
169	 	 	25	 Q11: 2	 	117
170	 	 	34	 Q6: 2	 	21	20
171	 	 	13	 Q5: 2	 	62
172	 	 	28	 Q1: 2
173	 	 	37	 Q1: 0
174	 	 	30	 Q7: 2
175	 	 	40	 Q0: 0	 	71
176	 	 	36	 Q5: 2	 	150
177	 	 	9	 Q10: 0
178	 	 	37	 Q4: 2
179	 	 	17	 Q4: 0
180	 	 	10	 Q4: 2
181	 	 	29	 Q7: 1
182	 	 	29	 Q0: 0	 	145	103	94
183	 	 	24	 Q1: 2
184	 	 	18	 Q12: 2	 	153	33
185	 	 	27	 Q2: 1	 	88
186	 	 	21	 Q0: 1	 	114	48	18
187	 	 	11	 Q5: 2	 	9
188	 	 	39	 Q1: 0
189	 	 	24	 Q7: 1
190	 	 	35	 Q1: 0	 	76
191	 	 	10	 Q10: 0	 	17
192	 	 	31	 Q12: 2	 	158	189
193	 	 	29	 Q10: 1	 	16
194	 	 	26	 Q6: 1
195	 	 	9	 Q12: 1
196	 	 	23	 Q9: 2
197	 	 	26	 Q2: 1
198	 	 	24	 Q13: 1
199	 	 	35	 Q2: 2	 	67
200	 	 	12	 Q2: 1	 	94	16
====================================================================================================================
